24

1 13 3
2 19 24
3 8 18
4 15 4
5 9 20
6 2 19
7 14 20
8 23 14
9 11 9
10 8 16
11 11 23
12 4 14
13 10 10
14 6 20
15 17 9
16 8 21
17 2 14
18 10 17
19 7 14
20 12 23
21 24 11
22 4 17
23 17 17
24 17 2

41
